98
raw_data/mm-rcpsp/MMLIB50/J5020_3.mm
Time limit set to 60 seconds
Running CP solver
/home/omastto1/General-Optimization-Solver/src/solvers/mmrcpsp.py:42(stream:278:6): Warning: Cumulative expression 'pulse': height is zero, expression is zero everywhere.
                                                                                               VarCumulAtom_421 = pulse(task_0_mode_0, 0)
/home/omastto1/General-Optimization-Solver/src/solvers/mmrcpsp.py:42(stream:278:3911): Warning: Cumulative expression 'pulse': height is zero, expression is zero everywhere.
                                                                                                  VarCumulAtom_572 = pulse(task_51_mode_0, 0)
/home/omastto1/General-Optimization-Solver/src/solvers/mmrcpsp.py:42(stream:279:6): Warning: Cumulative expression 'pulse': height is zero, expression is zero everywhere.
                                                                                               VarCumulAtom_576 = pulse(task_0_mode_0, 0)
/home/omastto1/General-Optimization-Solver/src/solvers/mmrcpsp.py:42(stream:279:3906): Warning: Cumulative expression 'pulse': height is zero, expression is zero everywhere.
                                                                                                  VarCumulAtom_727 = pulse(task_51_mode_0, 0)
 ! --------------------------------------------------- CP Optimizer 20.1.0.0 --
 ! Minimization problem - 205 variables, 254 constraints
 ! TimeLimit            = 60
 ! Workers              = 14
 ! LogVerbosity         = Terse
 ! Initial process time : 0.02s (0.02s extraction + 0.00s propagation)
 !  . Log search space  : 521.6 (before), 521.6 (after)
 !  . Memory usage      : 1.3 MB (before), 1.3 MB (after)
 ! Using parallel search with 14 workers.
 ! ----------------------------------------------------------------------------
 !          Best Branches  Non-fixed    W       Branch decision
                        0        205                 -
 + New bound is 23
 ! Using iterative diving.
 ! Using temporal relaxation.
 *            34      116  0.80s        1      (gap is 32.35%)
 *            33      283  0.80s        1      (gap is 30.30%)
 *            32      391  0.80s        1      (gap is 28.12%)
 *            31      499  0.80s        1      (gap is 25.81%)
 *            30      705  0.80s        1      (gap is 23.33%)
 *            29      855  0.80s        1      (gap is 20.69%)
 *            28      902  0.80s        1      (gap is 17.86%)
 *            27      940  0.80s        1      (gap is 14.81%)
 *            26     2420  1.50s        1      (gap is 11.54%)
 *            25     1729  1.50s        3      (gap is 8.00%)
 *            24     3704  2.07s        1      (gap is 4.17%)
 ! Using failure-directed search.
 *            23    11059  9.64s        1      (gap is 0.00%)
 ! ----------------------------------------------------------------------------
 ! Search completed, 12 solutions found.
 ! Best objective         : 23 (optimal - effective tol. is 0)
 ! Best bound             : 23
 ! ----------------------------------------------------------------------------
 ! Number of branches     : 677378
 ! Number of fails        : 116501
 ! Total memory usage     : 18.7 MB (18.5 MB CP Optimizer + 0.2 MB Concert)
 ! Time spent in solve    : 10.21s (10.19s engine + 0.02s extraction)
 ! Search speed (br. / s) : 66474.8
 ! ----------------------------------------------------------------------------
task_0: (start=0, end=0, size=0, length=0)
Task 0 is scheduled in mode 0 from 0 to 0
task_1: (start=0, end=4, size=4, length=4)
Task 1 is scheduled in mode 2 from 0 to 4
task_2: (start=0, end=5, size=5, length=5)
Task 2 is scheduled in mode 1 from 0 to 5
task_3: (start=0, end=1, size=1, length=1)
Task 3 is scheduled in mode 0 from 0 to 1
task_4: (start=0, end=1, size=1, length=1)
Task 4 is scheduled in mode 0 from 0 to 1
task_5: (start=0, end=4, size=4, length=4)
Task 5 is scheduled in mode 0 from 0 to 4
task_6: (start=0, end=8, size=8, length=8)
Task 6 is scheduled in mode 2 from 0 to 8
task_7: (start=1, end=5, size=4, length=4)
Task 7 is scheduled in mode 1 from 1 to 5
task_8: (start=0, end=4, size=4, length=4)
Task 8 is scheduled in mode 2 from 0 to 4
task_9: (start=0, end=6, size=6, length=6)
Task 9 is scheduled in mode 2 from 0 to 6
task_10: (start=0, end=8, size=8, length=8)
Task 10 is scheduled in mode 1 from 0 to 8
task_11: (start=4, end=9, size=5, length=5)
Task 11 is scheduled in mode 0 from 4 to 9
task_12: (start=3, end=9, size=6, length=6)
Task 12 is scheduled in mode 2 from 3 to 9
task_13: (start=0, end=9, size=9, length=9)
Task 13 is scheduled in mode 2 from 0 to 9
task_14: (start=1, end=3, size=2, length=2)
Task 14 is scheduled in mode 0 from 1 to 3
task_15: (start=6, end=12, size=6, length=6)
Task 15 is scheduled in mode 2 from 6 to 12
task_16: (start=4, end=6, size=2, length=2)
Task 16 is scheduled in mode 0 from 4 to 6
task_17: (start=10, end=14, size=4, length=4)
Task 17 is scheduled in mode 1 from 10 to 14
task_18: (start=5, end=9, size=4, length=4)
Task 18 is scheduled in mode 0 from 5 to 9
task_19: (start=1, end=8, size=7, length=7)
Task 19 is scheduled in mode 1 from 1 to 8
task_20: (start=9, end=10, size=1, length=1)
Task 20 is scheduled in mode 0 from 9 to 10
task_21: (start=10, end=13, size=3, length=3)
Task 21 is scheduled in mode 0 from 10 to 13
task_22: (start=6, end=15, size=9, length=9)
Task 22 is scheduled in mode 2 from 6 to 15
task_23: (start=6, end=13, size=7, length=7)
Task 23 is scheduled in mode 2 from 6 to 13
task_24: (start=0, end=10, size=10, length=10)
Task 24 is scheduled in mode 2 from 0 to 10
task_25: (start=6, end=14, size=8, length=8)
Task 25 is scheduled in mode 2 from 6 to 14
task_26: (start=8, end=14, size=6, length=6)
Task 26 is scheduled in mode 2 from 8 to 14
task_27: (start=5, end=12, size=7, length=7)
Task 27 is scheduled in mode 1 from 5 to 12
task_28: (start=12, end=14, size=2, length=2)
Task 28 is scheduled in mode 0 from 12 to 14
task_29: (start=4, end=10, size=6, length=6)
Task 29 is scheduled in mode 0 from 4 to 10
task_30: (start=14, end=16, size=2, length=2)
Task 30 is scheduled in mode 0 from 14 to 16
task_31: (start=14, end=18, size=4, length=4)
Task 31 is scheduled in mode 0 from 14 to 18
task_32: (start=8, end=13, size=5, length=5)
Task 32 is scheduled in mode 0 from 8 to 13
task_33: (start=15, end=18, size=3, length=3)
Task 33 is scheduled in mode 2 from 15 to 18
task_34: (start=16, end=20, size=4, length=4)
Task 34 is scheduled in mode 2 from 16 to 20
task_35: (start=9, end=15, size=6, length=6)
Task 35 is scheduled in mode 1 from 9 to 15
task_36: (start=9, end=13, size=4, length=4)
Task 36 is scheduled in mode 1 from 9 to 13
task_37: (start=13, end=16, size=3, length=3)
Task 37 is scheduled in mode 0 from 13 to 16
task_38: (start=9, end=19, size=10, length=10)
Task 38 is scheduled in mode 2 from 9 to 19
task_39: (start=13, end=16, size=3, length=3)
Task 39 is scheduled in mode 1 from 13 to 16
task_40: (start=18, end=23, size=5, length=5)
Task 40 is scheduled in mode 0 from 18 to 23
task_41: (start=16, end=23, size=7, length=7)
Task 41 is scheduled in mode 2 from 16 to 23
task_42: (start=13, end=23, size=10, length=10)
Task 42 is scheduled in mode 2 from 13 to 23
task_43: (start=20, end=23, size=3, length=3)
Task 43 is scheduled in mode 0 from 20 to 23
task_44: (start=18, end=23, size=5, length=5)
Task 44 is scheduled in mode 1 from 18 to 23
task_45: (start=15, end=23, size=8, length=8)
Task 45 is scheduled in mode 2 from 15 to 23
task_46: (start=14, end=20, size=6, length=6)
Task 46 is scheduled in mode 1 from 14 to 20
task_47: (start=14, end=23, size=9, length=9)
Task 47 is scheduled in mode 2 from 14 to 23
task_48: (start=19, end=23, size=4, length=4)
Task 48 is scheduled in mode 2 from 19 to 23
task_49: (start=16, end=23, size=7, length=7)
Task 49 is scheduled in mode 2 from 16 to 23
task_50: (start=20, end=23, size=3, length=3)
Task 50 is scheduled in mode 1 from 20 to 23
task_51: (start=23, end=23, size=0, length=0)
Task 51 is scheduled in mode 0 from 23 to 23
Optimal solution found
Objective value: 23
Solution is optimal.
